branches/new_interfaces/knapsacks/50.txt
50
400.0
48.0 88.0
17.0 99.0
89.0 25.0
90.0 25.0
58.0 46.0
64.0 11.0
90.0 13.0
98.0 100.0
93.0 19.0
44.0 44.0
21.0 62.0
29.0 38.0
11.0 28.0
16.0 36.0
14.0 35.0
20.0 96.0
80.0 56.0
25.0 71.0
71.0 84.0
89.0 86.0
90.0 65.0
32.0 83.0
23.0 41.0
76.0 89.0
50.0 15.0
28.0 88.0
52.0 40.0
15.0 20.0
46.0 17.0
89.0 72.0
25.0 76.0
93.0 33.0
12.0 79.0
87.0 50.0
36.0 39.0
42.0 82.0
88.0 90.0
61.0 97.0
38.0 64.0
12.0 87.0
42.0 94.0
81.0 63.0
79.0 44.0
13.0 40.0
14.0 70.0
75.0 75.0
60.0 39.0
12.0 96.0
45.0 83.0
87.0 41.0
