knapsacks/50.opt.txt
for a total value of 1292 and a total weight of 400
0 1 10 12 13 14 15 17 21 25 30 32 38 39 40 43 44 47
